n_rects = 29;
paper_w = 39;
paper_h = 39;
w = [3, 3, 3, 3, 3, 3, 3, 3, 3, 3, 4, 4, 4, 4, 4, 4, 4, 4, 4, 5, 5, 5, 5, 5, 5, 5, 5, 5, 15];
h = [3, 4, 5, 6, 7, 8, 9, 10, 11, 15, 3, 4, 5, 6, 8, 9, 12, 15, 16, 3, 4, 5, 6, 8, 10, 11, 13, 18, 39];
